p cnf 705 1951
a 1 2 3 4 13 14 15 16 17 18 19 20 21 22 23 24 25 26 27 28 29 30 31 32 33 34 35 36 37 38 39 40 41 42 43 44 45 46 47 48 49 50 51 52 53 54 55 56 57 58 59 60 61 62 63 64 65 66 67 68 69 70 71 72 73 74 75 76 77 78 0
e 5 6 7 8 9 10 11 12 79 80 81 82 83 84 85 86 87 88 89 90 91 92 93 94 95 96 97 98 99 100 101 102 103 104 105 106 107 108 109 110 111 112 113 114 115 116 117 118 119 120 121 122 123 124 125 126 127 128 129 130 131 132 133 134 135 136 137 138 139 140 141 142 143 144 145 146 147 148 149 150 151 152 153 154 155 156 157 158 159 160 161 162 163 164 165 166 167 168 169 170 171 172 173 174 175 176 177 178 179 180 181 182 183 184 185 186 187 188 189 190 191 192 193 194 195 196 197 198 199 200 201 202 203 204 205 206 207 208 209 210 211 212 213 214 215 216 217 218 219 220 221 222 223 224 225 226 227 228 229 230 231 232 233 234 235 236 237 238 239 240 241 242 243 244 245 246 247 248 249 250 251 252 253 254 255 256 257 258 259 260 261 262 263 264 265 266 267 268 269 270 271 272 273 274 275 276 277 278 279 280 281 282 283 284 285 286 287 288 289 290 291 292 293 294 295 296 297 298 299 300 301 302 303 304 305 306 307 308 309 310 311 312 313 314 315 316 317 318 319 320 321 322 323 324 325 326 327 328 329 330 331 332 333 334 335 336 337 338 339 340 341 342 343 344 345 346 347 348 349 350 351 352 353 354 355 356 357 358 359 360 361 362 363 364 365 366 367 368 369 370 371 372 373 374 375 376 377 378 379 380 381 382 383 384 385 386 387 388 389 390 391 392 393 394 395 396 397 398 399 400 401 402 403 404 405 406 407 408 409 410 411 412 413 414 415 416 417 418 419 420 421 422 423 424 425 426 427 428 429 430 431 432 433 434 435 436 437 438 439 440 441 442 443 444 445 446 447 448 449 450 451 452 453 454 455 456 457 458 459 460 461 462 463 464 465 466 467 468 469 470 471 472 473 474 475 476 477 478 479 480 481 482 483 484 485 486 487 488 489 490 491 492 493 494 495 496 497 498 499 500 501 502 503 504 505 506 507 508 509 510 511 512 513 514 515 516 517 518 519 520 521 522 523 524 525 526 527 528 529 530 531 532 533 534 535 536 537 538 539 540 541 542 543 544 545 546 547 548 549 550 551 552 553 554 555 556 557 558 559 560 561 562 563 564 565 566 567 568 569 570 571 572 573 574 575 576 577 578 579 580 581 582 583 584 585 586 587 588 589 590 591 592 593 594 595 596 597 598 599 600 601 602 603 604 605 606 607 608 609 610 611 612 613 614 615 616 617 618 619 620 621 622 623 624 625 626 627 628 629 630 631 632 633 634 635 636 637 638 639 640 641 642 643 644 645 646 647 648 649 650 651 652 653 654 655 656 657 658 659 660 661 662 663 664 665 666 667 668 669 670 671 672 673 674 675 676 677 678 679 680 681 682 683 684 685 686 687 688 689 690 691 692 693 694 695 696 697 698 699 700 701 702 703 704 705 0
-705 0
705 -593 0
705 -632 0
705 -669 0
705 -704 0
4 2 1 -592 -703 704 0
703 -685 0
703 -702 0
-589 -588 -701 -336 -335 702 0
701 -688 0
701 -691 0
701 -697 0
701 -700 0
-548 -547 -546 -699 -698 -545 -540 700 0
699 -512 0
699 -580 0
698 -531 0
698 -560 0
-627 -655 -550 -696 697 0
696 -695 0
696 -393 0
696 -394 0
696 -395 0
696 -396 0
-694 -693 -692 695 0
694 -408 0
694 -424 0
694 -425 0
694 -426 0
694 -427 0
694 -409 0
694 -410 0
694 -411 0
694 -72 0
694 -65 0
694 -51 0
694 -50 0
694 -49 0
694 -48 0
694 -45 0
693 -403 0
693 -404 0
693 -405 0
693 -419 0
693 -406 0
693 -420 0
693 -421 0
693 -422 0
693 -71 0
693 -62 0
693 -38 0
693 -37 0
693 -36 0
693 -35 0
693 -32 0
692 -398 0
692 -399 0
692 -414 0
692 -415 0
692 -416 0
692 -417 0
692 -400 0
692 -70 0
692 -59 0
692 -401 0
692 -25 0
692 -24 0
692 -23 0
692 -22 0
692 -19 0
-543 -542 -541 -559 -557 -690 -689 691 0
690 -565 0
690 -580 0
689 -517 0
689 -549 0
-538 -579 -578 -537 -536 -687 -686 688 0
687 -584 0
687 -560 0
686 -474 0
686 -549 0
-684 -681 -678 -672 -83 685 0
684 -682 0
684 -325 0
684 -326 0
684 -683 0
684 -283 0
684 -284 0
684 -285 0
-331 -318 683 0
-259 -296 682 0
681 -679 0
681 -680 0
681 -315 0
681 -288 0
681 -289 0
681 -317 0
681 -290 0
-327 -322 680 0
-296 -278 679 0
678 -677 0
678 -297 0
678 -644 0
678 -609 0
-143 -142 -141 -140 -676 677 0
676 -673 0
676 -674 0
676 -675 0
50 51 49 48 45 65 72 -174 -173 -172 -158 -157 -156 -155 -171 675 0
32 38 35 37 36 62 71 -153 -152 -151 -169 -150 -168 -167 -166 674 0
25 24 23 22 19 -164 59 70 -163 -148 -147 -146 -145 -162 -161 673 0
672 -670 0
672 -671 0
672 -287 0
672 -292 0
672 -293 0
672 -294 0
672 -295 0
-327 -221 671 0
-318 -274 670 0
4 3 1 -592 -668 669 0
668 -649 0
668 -667 0
-589 -588 -666 -336 -335 667 0
666 -656 0
666 -659 0
666 -662 0
666 -665 0
-520 -519 -518 -583 -582 -664 -663 665 0
664 -571 0
664 -580 0
663 -474 0
663 -531 0
-530 -529 -524 -523 -522 -661 -660 662 0
661 -584 0
661 -512 0
660 -571 0
660 -549 0
-527 -526 -525 -570 -568 -658 -657 659 0
658 -584 0
658 -575 0
657 -535 0
657 -531 0
-655 -626 -532 -654 656 0
655 -571 0
655 -560 0
654 -653 0
654 -393 0
654 -394 0
654 -395 0
654 -396 0
-652 -651 -650 653 0
652 -447 0
652 -448 0
652 -384 0
652 -449 0
652 -385 0
652 -386 0
652 -450 0
652 -389 0
652 -72 0
652 -65 0
652 -51 0
652 -50 0
652 -49 0
652 -48 0
652 -45 0
651 -442 0
651 -443 0
651 -444 0
651 -374 0
651 -375 0
651 -376 0
651 -445 0
651 -379 0
651 -71 0
651 -62 0
651 -38 0
651 -37 0
651 -36 0
651 -35 0
651 -32 0
650 -437 0
650 -438 0
650 -366 0
650 -368 0
650 -369 0
650 -439 0
650 -440 0
650 -370 0
650 -70 0
650 -59 0
650 -25 0
650 -24 0
650 -23 0
650 -22 0
650 -19 0
-648 -645 -638 -635 -83 649 0
648 -646 0
648 -647 0
648 -261 0
648 -262 0
648 -329 0
648 -330 0
648 -263 0
-327 -307 647 0
-259 -274 646 0
645 -643 0
645 -279 0
645 -608 0
645 -644 0
-318 -307 644 0
-143 -142 -141 -140 -642 643 0
642 -639 0
642 -640 0
642 -641 0
50 51 49 48 45 65 72 -108 -197 -107 -106 -196 -104 -195 -194 641 0
32 38 35 37 36 62 71 -100 -192 -98 -96 -94 -191 -190 -189 640 0
25 24 23 22 19 59 70 -89 -187 -186 -88 -87 -86 -185 -184 639 0
638 -636 0
638 -637 0
638 -304 0
638 -306 0
638 -266 0
638 -267 0
638 -268 0
-331 -312 637 0
-282 -274 636 0
635 -633 0
635 -634 0
635 -265 0
635 -270 0
635 -271 0
635 -272 0
635 -273 0
-331 -221 634 0
-296 -307 633 0
4 3 2 -592 -631 632 0
631 -611 0
631 -630 0
-589 -588 -629 -336 -335 630 0
629 -614 0
629 -617 0
629 -620 0
629 -628 0
-627 -626 -513 -625 628 0
627 -575 0
627 -580 0
626 -584 0
626 -565 0
625 -624 0
625 -393 0
625 -394 0
625 -395 0
625 -396 0
-623 -622 -621 624 0
623 -383 0
623 -357 0
623 -358 0
623 -359 0
623 -387 0
623 -388 0
623 -361 0
623 -390 0
623 -78 0
623 -72 0
623 -69 0
623 -65 0
623 -51 0
623 -50 0
623 -45 0
622 -349 0
622 -351 0
622 -377 0
622 -378 0
622 -380 0
622 -381 0
622 -352 0
622 -353 0
622 -77 0
622 -71 0
622 -68 0
622 -62 0
622 -38 0
622 -37 0
622 -32 0
621 -365 0
621 -367 0
621 -339 0
621 -371 0
621 -372 0
621 -342 0
621 -343 0
621 -344 0
621 -76 0
621 -70 0
621 -67 0
621 -59 0
621 -25 0
621 -24 0
621 -19 0
-511 -510 -505 -500 -499 -619 -618 620 0
619 -565 0
619 -531 0
618 -575 0
618 -549 0
-508 -507 -506 -574 -573 -616 -615 617 0
616 -565 0
616 -571 0
615 -535 0
615 -512 0
-493 -492 -491 -564 -563 -613 -612 614 0
613 -575 0
613 -560 0
612 -517 0
612 -512 0
-610 -602 -599 -596 -83 611 0
610 -607 0
610 -260 0
610 -608 0
610 -609 0
-327 -312 609 0
-331 -322 608 0
-143 -142 -141 -140 -606 607 0
606 -603 0
606 -604 0
606 -605 0
50 69 51 45 65 78 72 -137 -235 -136 -135 -234 -233 -232 -131 605 0
32 38 37 68 62 77 71 -230 -229 -127 -126 -125 -124 -228 -227 604 0
25 24 19 76 67 59 70 -225 -224 -223 -118 -117 -222 -115 -114 603 0
602 -600 0
602 -601 0
602 -144 0
602 -177 0
602 -320 0
602 -321 0
602 -182 0
-318 -312 601 0
-278 -221 600 0
599 -597 0
599 -598 0
599 -309 0
599 -311 0
599 -205 0
599 -210 0
599 -211 0
-322 -307 598 0
-282 -221 597 0
596 -594 0
596 -595 0
596 -200 0
596 -217 0
596 -218 0
596 -219 0
596 -220 0
-322 -274 595 0
-296 -312 594 0
3 2 1 -592 -591 593 0
592 -4 0
592 -3 0
592 -2 0
592 -1 0
591 -334 0
591 -590 0
-589 -588 -587 -336 -335 590 0
589 6 0
589 5 0
588 11 0
588 12 0
587 -556 0
587 -567 0
587 -577 0
587 -586 0
-473 -472 -471 -470 -453 -585 -581 586 0
585 -584 0
585 -517 0
-520 -519 -518 -583 -582 584 0
583 -528 0
583 -469 0
583 -393 0
583 -394 0
583 -395 0
583 -396 0
582 -569 0
582 -364 0
582 -393 0
582 -394 0
582 -395 0
582 -396 0
581 -535 0
581 -580 0
-538 -579 -578 -537 -536 580 0
579 -544 0
579 -452 0
579 -393 0
579 -394 0
579 -395 0
579 -396 0
578 -558 0
578 -364 0
578 -393 0
578 -394 0
578 -395 0
578 -396 0
-464 -463 -458 -534 -533 -576 -572 577 0
576 -474 0
576 -575 0
-508 -507 -506 -574 -573 575 0
574 -562 0
574 -413 0
574 -393 0
574 -394 0
574 -395 0
574 -396 0
573 -494 0
573 -462 0
573 -393 0
573 -394 0
573 -395 0
573 -396 0
572 -517 0
572 -571 0
-527 -526 -525 -570 -568 571 0
570 -569 0
570 -413 0
570 -393 0
570 -394 0
570 -395 0
570 -396 0
-530 -524 -523 569 0
568 -521 0
568 -457 0
568 -393 0
568 -394 0
568 -395 0
568 -396 0
-435 -430 -397 -516 -515 -566 -561 567 0
566 -474 0
566 -565 0
-493 -492 -491 -564 -563 565 0
564 -509 0
564 -429 0
564 -393 0
564 -394 0
564 -395 0
564 -396 0
563 -562 0
563 -434 0
563 -393 0
563 -394 0
563 -395 0
563 -396 0
-511 -505 -500 562 0
561 -535 0
561 -560 0
-543 -542 -541 -559 -557 560 0
559 -558 0
559 -434 0
559 -393 0
559 -394 0
559 -395 0
559 -396 0
-548 -547 -546 558 0
557 -539 0
557 -392 0
557 -393 0
557 -394 0
557 -395 0
557 -396 0
-555 -550 -532 -513 556 0
555 -554 0
555 -393 0
555 -394 0
555 -395 0
555 -396 0
-553 -552 -551 554 0
553 -485 0
553 -355 0
553 -356 0
553 -486 0
553 -360 0
553 -487 0
553 -488 0
553 -362 0
553 -51 0
553 -50 0
553 -49 0
553 -48 0
553 -47 0
553 -46 0
553 -45 0
552 -480 0
552 -346 0
552 -347 0
552 -481 0
552 -348 0
552 -482 0
552 -350 0
552 -483 0
552 -38 0
552 -37 0
552 -36 0
552 -35 0
552 -34 0
552 -33 0
552 -32 0
551 -475 0
551 -476 0
551 -337 0
551 -338 0
551 -340 0
551 -341 0
551 -477 0
551 -478 0
551 -25 0
551 -24 0
551 -23 0
551 -22 0
551 -21 0
551 -20 0
551 -19 0
550 -535 0
550 -549 0
-548 -547 -546 -545 -540 549 0
548 -504 0
548 -393 0
548 -394 0
548 -395 0
548 -396 0
547 -429 0
547 -498 0
547 -393 0
547 -394 0
547 -395 0
547 -396 0
546 -490 0
546 -469 0
546 -393 0
546 -394 0
546 -395 0
546 -396 0
545 -544 0
545 -498 0
545 -393 0
545 -394 0
545 -395 0
545 -396 0
-543 -542 -541 544 0
543 -429 0
543 -393 0
543 -394 0
543 -395 0
543 -396 0
542 -392 0
542 -469 0
542 -393 0
542 -394 0
542 -395 0
542 -396 0
541 -434 0
541 -504 0
541 -393 0
541 -394 0
541 -395 0
541 -396 0
540 -539 0
540 -490 0
540 -393 0
540 -394 0
540 -395 0
540 -396 0
-538 -537 -536 539 0
538 -469 0
538 -393 0
538 -394 0
538 -395 0
538 -396 0
537 -429 0
537 -452 0
537 -393 0
537 -394 0
537 -395 0
537 -396 0
536 -364 0
536 -504 0
536 -393 0
536 -394 0
536 -395 0
536 -396 0
-464 -463 -458 -534 -533 535 0
534 -436 0
534 -462 0
534 -393 0
534 -394 0
534 -395 0
534 -396 0
533 -514 0
533 -457 0
533 -393 0
533 -394 0
533 -395 0
533 -396 0
532 -517 0
532 -531 0
-530 -529 -524 -523 -522 531 0
530 -498 0
530 -393 0
530 -394 0
530 -395 0
530 -396 0
529 -528 0
529 -504 0
529 -393 0
529 -394 0
529 -395 0
529 -396 0
-527 -526 -525 528 0
527 -462 0
527 -393 0
527 -394 0
527 -395 0
527 -396 0
526 -413 0
526 -498 0
526 -393 0
526 -394 0
526 -395 0
526 -396 0
525 -457 0
525 -452 0
525 -393 0
525 -394 0
525 -395 0
525 -396 0
524 -462 0
524 -504 0
524 -393 0
524 -394 0
524 -395 0
524 -396 0
523 -490 0
523 -452 0
523 -393 0
523 -394 0
523 -395 0
523 -396 0
522 -521 0
522 -490 0
522 -393 0
522 -394 0
522 -395 0
522 -396 0
-520 -519 -518 521 0
520 -452 0
520 -393 0
520 -394 0
520 -395 0
520 -396 0
519 -462 0
519 -469 0
519 -393 0
519 -394 0
519 -395 0
519 -396 0
518 -364 0
518 -498 0
518 -393 0
518 -394 0
518 -395 0
518 -396 0
-435 -430 -397 -516 -515 517 0
516 -465 0
516 -429 0
516 -393 0
516 -394 0
516 -395 0
516 -396 0
515 -514 0
515 -392 0
515 -393 0
515 -394 0
515 -395 0
515 -396 0
-473 -472 -471 514 0
513 -474 0
513 -512 0
-511 -510 -505 -500 -499 512 0
511 -490 0
511 -393 0
511 -394 0
511 -395 0
511 -396 0
510 -509 0
510 -504 0
510 -393 0
510 -394 0
510 -395 0
510 -396 0
-508 -507 -506 509 0
508 -413 0
508 -490 0
508 -393 0
508 -394 0
508 -395 0
508 -396 0
507 -462 0
507 -392 0
507 -393 0
507 -394 0
507 -395 0
507 -396 0
506 -457 0
506 -393 0
506 -394 0
506 -395 0
506 -396 0
505 -457 0
505 -504 0
505 -393 0
505 -394 0
505 -395 0
505 -396 0
-503 -502 -501 504 0
503 -485 0
503 -424 0
503 -425 0
503 -426 0
503 -427 0
503 -486 0
503 -487 0
503 -488 0
503 -66 0
503 -65 0
503 -64 0
503 -51 0
503 -49 0
503 -48 0
503 -46 0
502 -480 0
502 -419 0
502 -420 0
502 -481 0
502 -421 0
502 -422 0
502 -482 0
502 -483 0
502 -63 0
502 -62 0
502 -61 0
502 -38 0
502 -36 0
502 -35 0
502 -33 0
501 -475 0
501 -476 0
501 -414 0
501 -415 0
501 -416 0
501 -417 0
501 -477 0
501 -478 0
501 -60 0
501 -59 0
501 -58 0
501 -25 0
501 -23 0
501 -22 0
501 -20 0
500 -392 0
500 -498 0
500 -393 0
500 -394 0
500 -395 0
500 -396 0
499 -494 0
499 -498 0
499 -393 0
499 -394 0
499 -395 0
499 -396 0
-497 -496 -495 498 0
497 -485 0
497 -447 0
497 -448 0
497 -449 0
497 -486 0
497 -487 0
497 -488 0
497 -450 0
497 -65 0
497 -64 0
497 -51 0
497 -50 0
497 -49 0
497 -48 0
497 -46 0
496 -480 0
496 -442 0
496 -443 0
496 -444 0
496 -481 0
496 -482 0
496 -445 0
496 -483 0
496 -62 0
496 -61 0
496 -38 0
496 -37 0
496 -36 0
496 -35 0
496 -33 0
495 -475 0
495 -476 0
495 -437 0
495 -438 0
495 -439 0
495 -440 0
495 -477 0
495 -478 0
495 -59 0
495 -58 0
495 -25 0
495 -24 0
495 -23 0
495 -22 0
495 -20 0
-493 -492 -491 494 0
493 -392 0
493 -393 0
493 -394 0
493 -395 0
493 -396 0
492 -457 0
492 -429 0
492 -393 0
492 -394 0
492 -395 0
492 -396 0
491 -490 0
491 -434 0
491 -393 0
491 -394 0
491 -395 0
491 -396 0
-489 -484 -479 490 0
489 -485 0
489 -383 0
489 -486 0
489 -487 0
489 -488 0
489 -387 0
489 -388 0
489 -390 0
489 -69 0
489 -65 0
489 -64 0
489 -51 0
489 -50 0
489 -48 0
489 -46 0
-5 -18 488 0
-6 -56 487 0
6 -52 486 0
-15 5 485 0
484 -480 0
484 -481 0
484 -482 0
484 -377 0
484 -378 0
484 -380 0
484 -381 0
484 -483 0
484 -68 0
484 -62 0
484 -61 0
484 -38 0
484 -37 0
484 -35 0
484 -33 0
-5 -16 483 0
-6 -43 482 0
-39 6 481 0
-14 5 480 0
479 -475 0
479 -476 0
479 -365 0
479 -367 0
479 -477 0
479 -371 0
479 -372 0
479 -478 0
479 -67 0
479 -59 0
479 -58 0
479 -25 0
479 -24 0
479 -22 0
479 -20 0
-6 -30 478 0
-26 6 477 0
-5 -17 476 0
-13 5 475 0
-473 -472 -471 -470 -453 474 0
473 -364 0
473 -393 0
473 -394 0
473 -395 0
473 -396 0
472 -413 0
472 -469 0
472 -393 0
472 -394 0
472 -395 0
472 -396 0
471 -434 0
471 -452 0
471 -393 0
471 -394 0
471 -395 0
471 -396 0
470 -465 0
470 -469 0
470 -393 0
470 -394 0
470 -395 0
470 -396 0
-468 -467 -466 469 0
468 -424 0
468 -425 0
468 -426 0
468 -357 0
468 -427 0
468 -358 0
468 -359 0
468 -361 0
468 -78 0
468 -72 0
468 -65 0
468 -64 0
468 -51 0
468 -50 0
468 -49 0
467 -419 0
467 -420 0
467 -421 0
467 -422 0
467 -349 0
467 -351 0
467 -352 0
467 -353 0
467 -77 0
467 -71 0
467 -62 0
467 -61 0
467 -38 0
467 -37 0
467 -36 0
466 -414 0
466 -415 0
466 -416 0
466 -417 0
466 -339 0
466 -342 0
466 -343 0
466 -344 0
466 -76 0
466 -70 0
466 -59 0
466 -58 0
466 -25 0
466 -24 0
466 -23 0
-464 -463 -458 465 0
464 -413 0
464 -393 0
464 -394 0
464 -395 0
464 -396 0
463 -462 0
463 -434 0
463 -393 0
463 -394 0
463 -395 0
463 -396 0
-461 -460 -459 462 0
461 -408 0
461 -447 0
461 -448 0
461 -449 0
461 -409 0
461 -410 0
461 -450 0
461 -411 0
461 -72 0
461 -66 0
461 -65 0
461 -64 0
461 -51 0
461 -49 0
461 -48 0
460 -403 0
460 -404 0
460 -405 0
460 -406 0
460 -442 0
460 -443 0
460 -444 0
460 -445 0
460 -71 0
460 -63 0
460 -62 0
460 -61 0
460 -38 0
460 -36 0
460 -35 0
459 -398 0
459 -399 0
459 -437 0
459 -438 0
459 -439 0
459 -440 0
459 -400 0
459 -70 0
459 -60 0
459 -59 0
459 -58 0
459 -401 0
459 -25 0
459 -23 0
459 -22 0
458 -457 0
458 -364 0
458 -393 0
458 -394 0
458 -395 0
458 -396 0
-456 -455 -454 457 0
456 -408 0
456 -383 0
456 -409 0
456 -410 0
456 -387 0
456 -388 0
456 -411 0
456 -390 0
456 -72 0
456 -69 0
456 -65 0
456 -64 0
456 -51 0
456 -50 0
456 -48 0
455 -403 0
455 -404 0
455 -405 0
455 -406 0
455 -377 0
455 -378 0
455 -380 0
455 -381 0
455 -71 0
455 -68 0
455 -62 0
455 -61 0
455 -38 0
455 -37 0
455 -35 0
454 -398 0
454 -399 0
454 -365 0
454 -367 0
454 -400 0
454 -371 0
454 -372 0
454 -70 0
454 -67 0
454 -59 0
454 -58 0
454 -401 0
454 -25 0
454 -24 0
454 -22 0
453 -436 0
453 -452 0
453 -393 0
453 -394 0
453 -395 0
453 -396 0
-451 -446 -441 452 0
451 -447 0
451 -357 0
451 -448 0
451 -449 0
451 -358 0
451 -359 0
451 -450 0
451 -361 0
451 -78 0
451 -75 0
451 -72 0
451 -65 0
451 -64 0
451 -50 0
451 -49 0
-10 -57 450 0
-9 -55 449 0
9 -53 448 0
10 -54 447 0
446 -442 0
446 -443 0
446 -444 0
446 -349 0
446 -351 0
446 -445 0
446 -352 0
446 -353 0
446 -77 0
446 -74 0
446 -71 0
446 -62 0
446 -61 0
446 -37 0
446 -36 0
-10 -44 445 0
9 -40 444 0
-9 -42 443 0
10 -41 442 0
441 -437 0
441 -438 0
441 -339 0
441 -439 0
441 -440 0
441 -342 0
441 -343 0
441 -344 0
441 -76 0
441 -73 0
441 -70 0
441 -59 0
441 -58 0
441 -24 0
441 -23 0
-27 9 440 0
-9 -29 439 0
-10 -31 438 0
-28 10 437 0
-435 -430 -397 436 0
435 -434 0
435 -393 0
435 -394 0
435 -395 0
435 -396 0
-433 -432 -431 434 0
433 -355 0
433 -356 0
433 -384 0
433 -360 0
433 -385 0
433 -386 0
433 -389 0
433 -362 0
433 -72 0
433 -64 0
433 -51 0
433 -50 0
433 -49 0
433 -48 0
433 -47 0
432 -346 0
432 -374 0
432 -347 0
432 -375 0
432 -348 0
432 -376 0
432 -350 0
432 -379 0
432 -71 0
432 -61 0
432 -38 0
432 -37 0
432 -36 0
432 -35 0
432 -34 0
431 -337 0
431 -338 0
431 -366 0
431 -368 0
431 -369 0
431 -370 0
431 -340 0
431 -341 0
431 -70 0
431 -58 0
431 -25 0
431 -24 0
431 -23 0
431 -22 0
431 -21 0
430 -413 0
430 -429 0
430 -393 0
430 -394 0
430 -395 0
430 -396 0
-428 -423 -418 429 0
428 -424 0
428 -425 0
428 -426 0
428 -384 0
428 -427 0
428 -385 0
428 -386 0
428 -389 0
428 -75 0
428 -72 0
428 -65 0
428 -64 0
428 -50 0
428 -49 0
428 -48 0
-7 -55 427 0
-8 -57 426 0
8 -54 425 0
7 -53 424 0
423 -419 0
423 -420 0
423 -374 0
423 -421 0
423 -375 0
423 -422 0
423 -376 0
423 -379 0
423 -74 0
423 -71 0
423 -62 0
423 -61 0
423 -37 0
423 -36 0
423 -35 0
7 -40 422 0
-8 -44 421 0
8 -41 420 0
-7 -42 419 0
418 -414 0
418 -415 0
418 -416 0
418 -366 0
418 -417 0
418 -368 0
418 -369 0
418 -370 0
418 -73 0
418 -70 0
418 -59 0
418 -58 0
418 -24 0
418 -23 0
418 -22 0
-8 -31 417 0
-27 7 416 0
-7 -29 415 0
-28 8 414 0
-412 -407 -402 413 0
412 -408 0
412 -355 0
412 -356 0
412 -409 0
412 -410 0
412 -360 0
412 -411 0
412 -362 0
412 -75 0
412 -72 0
412 -64 0
412 -50 0
412 -49 0
412 -48 0
412 -47 0
-8 -56 411 0
-7 -18 410 0
8 -52 409 0
-15 7 408 0
407 -403 0
407 -404 0
407 -405 0
407 -346 0
407 -406 0
407 -347 0
407 -348 0
407 -350 0
407 -74 0
407 -71 0
407 -61 0
407 -37 0
407 -36 0
407 -35 0
407 -34 0
-39 8 406 0
-8 -43 405 0
-7 -16 404 0
-14 7 403 0
402 -398 0
402 -399 0
402 -337 0
402 -338 0
402 -400 0
402 -340 0
402 -341 0
402 -73 0
402 -70 0
402 -58 0
402 -401 0
402 -24 0
402 -23 0
402 -22 0
402 -21 0
-8 -30 401 0
-7 -17 400 0
-26 8 399 0
-13 7 398 0
397 -364 0
397 -392 0
397 -393 0
397 -394 0
397 -395 0
397 -396 0
-14 13 396 0
-17 16 395 0
-15 14 394 0
-16 18 393 0
-391 -382 -373 392 0
391 -383 0
391 -384 0
391 -385 0
391 -386 0
391 -387 0
391 -388 0
391 -389 0
391 -390 0
391 -72 0
391 -69 0
391 -66 0
391 -65 0
391 -64 0
391 -51 0
391 -48 0
-12 -57 390 0
-10 -56 389 0
-11 -55 388 0
11 -53 387 0
-9 -18 386 0
-15 9 385 0
10 -52 384 0
12 -54 383 0
382 -374 0
382 -375 0
382 -376 0
382 -377 0
382 -378 0
382 -379 0
382 -380 0
382 -381 0
382 -71 0
382 -68 0
382 -63 0
382 -62 0
382 -61 0
382 -38 0
382 -35 0
-11 -42 381 0
11 -40 380 0
-14 9 379 0
-12 -44 378 0
12 -41 377 0
-9 -16 376 0
-10 -43 375 0
-39 10 374 0
373 -365 0
373 -366 0
373 -367 0
373 -368 0
373 -369 0
373 -370 0
373 -371 0
373 -372 0
373 -70 0
373 -67 0
373 -60 0
373 -59 0
373 -58 0
373 -25 0
373 -22 0
-11 -29 372 0
-27 11 371 0
-9 -17 370 0
-13 9 369 0
-26 10 368 0
-12 -31 367 0
-10 -30 366 0
-28 12 365 0
-363 -354 -345 364 0
363 -355 0
363 -356 0
363 -357 0
363 -358 0
363 -359 0
363 -360 0
363 -361 0
363 -362 0
363 -78 0
363 -72 0
363 -64 0
363 -51 0
363 -50 0
363 -49 0
363 -47 0
-6 -57 362 0
-12 -56 361 0
6 -54 360 0
-11 -18 359 0
-15 11 358 0
12 -52 357 0
-5 -55 356 0
5 -53 355 0
354 -346 0
354 -347 0
354 -348 0
354 -349 0
354 -350 0
354 -351 0
354 -352 0
354 -353 0
354 -77 0
354 -71 0
354 -61 0
354 -38 0
354 -37 0
354 -36 0
354 -34 0
-14 11 353 0
-11 -16 352 0
-39 12 351 0
-6 -44 350 0
-12 -43 349 0
5 -40 348 0
6 -41 347 0
-5 -42 346 0
345 -337 0
345 -338 0
345 -339 0
345 -340 0
345 -341 0
345 -342 0
345 -343 0
345 -344 0
345 -76 0
345 -70 0
345 -58 0
345 -25 0
345 -24 0
345 -23 0
345 -21 0
-12 -30 344 0
-11 -17 343 0
-13 11 342 0
-6 -31 341 0
-28 6 340 0
-26 12 339 0
-27 5 338 0
-5 -29 337 0
336 10 0
336 9 0
335 8 0
335 7 0
-333 -324 -314 -303 -83 334 0
333 -328 0
333 -332 0
333 -238 0
333 -243 0
333 -252 0
333 -257 0
333 -258 0
-331 -278 332 0
331 -261 0
331 -262 0
331 -329 0
331 -330 0
331 -263 0
-143 -142 -141 -140 -269 -242 330 0
-143 -142 -141 -140 -305 -247 329 0
-327 -282 328 0
327 -325 0
327 -326 0
327 -283 0
327 -284 0
327 -285 0
-143 -142 -141 -140 -237 -291 326 0
-143 -142 -141 -140 -247 -316 325 0
324 -319 0
324 -323 0
324 -276 0
324 -277 0
324 -248 0
324 -249 0
324 -250 0
-259 -322 323 0
322 -144 0
322 -177 0
322 -320 0
322 -321 0
322 -182 0
-143 -142 -141 -140 -160 -212 321 0
-143 -142 -141 -140 -111 -310 320 0
-318 -282 319 0
318 -315 0
318 -288 0
318 -289 0
318 -317 0
318 -290 0
-143 -142 -141 -140 -111 -316 317 0
316 -293 0
316 -294 0
316 -295 0
-143 -142 -141 -140 -181 -286 315 0
314 -308 0
314 -313 0
314 -280 0
314 -281 0
314 -253 0
314 -254 0
314 -255 0
-259 -312 313 0
312 -309 0
312 -311 0
312 -205 0
312 -210 0
312 -211 0
-143 -142 -141 -140 -209 -310 311 0
310 -218 0
310 -219 0
310 -220 0
-143 -142 -141 -140 -204 -183 309 0
-278 -307 308 0
307 -304 0
307 -306 0
307 -266 0
307 -267 0
307 -268 0
-143 -142 -141 -140 -209 -305 306 0
305 -271 0
305 -272 0
305 -273 0
-143 -142 -141 -140 -176 -264 304 0
303 -260 0
303 -279 0
303 -297 0
303 -302 0
-143 -142 -141 -140 -301 302 0
301 -298 0
301 -299 0
301 -300 0
50 51 49 48 46 45 47 -109 -134 -133 -105 -132 -103 -102 -130 300 0
32 38 33 35 37 36 34 -128 -99 -123 -97 -122 -95 -93 -121 299 0
25 24 23 22 21 20 19 -119 -116 -91 -90 -85 -84 -113 -112 298 0
-296 -282 297 0
296 -287 0
296 -292 0
296 -293 0
296 -294 0
296 -295 0
-143 -142 -141 -140 -216 295 0
-143 -142 -141 -140 -199 -160 294 0
-143 -142 -141 -140 -242 -139 293 0
-143 -142 -141 -140 -199 -291 292 0
291 -288 0
291 -289 0
291 -290 0
-143 -142 -141 -140 -160 290 0
-143 -142 -141 -140 -242 -181 289 0
-143 -142 -141 -140 -216 -111 288 0
-143 -142 -141 -140 -139 -286 287 0
286 -283 0
286 -284 0
286 -285 0
-143 -142 -141 -140 -242 285 0
-143 -142 -141 -140 -237 -160 284 0
-143 -142 -141 -140 -216 -247 283 0
282 -280 0
282 -281 0
282 -253 0
282 -254 0
282 -255 0
-143 -142 -141 -140 -204 -251 281 0
-143 -142 -141 -140 -176 -275 280 0
-278 -274 279 0
278 -276 0
278 -277 0
278 -248 0
278 -249 0
278 -250 0
-143 -142 -141 -140 -160 -256 277 0
-143 -142 -141 -140 -181 -275 276 0
275 -238 0
275 -243 0
275 -258 0
274 -265 0
274 -270 0
274 -271 0
274 -272 0
274 -273 0
-143 -142 -141 -140 -199 273 0
-143 -142 -141 -140 -216 -204 272 0
-143 -142 -141 -140 -237 -139 271 0
-143 -142 -141 -140 -216 -269 270 0
269 -266 0
269 -267 0
269 -268 0
-143 -142 -141 -140 -199 -209 268 0
-143 -142 -141 -140 -204 267 0
-143 -142 -141 -140 -237 -176 266 0
-143 -142 -141 -140 -139 -264 265 0
264 -261 0
264 -262 0
264 -263 0
-143 -142 -141 -140 -237 263 0
-143 -142 -141 -140 -204 -242 262 0
-143 -142 -141 -140 -199 -247 261 0
-259 -221 260 0
259 -238 0
259 -243 0
259 -252 0
259 -257 0
259 -258 0
-143 -142 -141 -140 -247 258 0
-143 -142 -141 -140 -242 -256 257 0
256 -253 0
256 -254 0
256 -255 0
-143 -142 -141 -140 -209 255 0
-143 -142 -141 -140 -204 -111 254 0
-143 -142 -141 -140 -176 -247 253 0
-143 -142 -141 -140 -237 -251 252 0
251 -248 0
251 -249 0
251 -250 0
-143 -142 -141 -140 -111 250 0
-143 -142 -141 -140 -209 -160 249 0
-143 -142 -141 -140 -247 -181 248 0
247 -244 0
247 -245 0
247 -246 0
50 51 49 64 47 78 72 -109 -235 -105 -234 -233 -232 -103 -102 246 0
38 37 36 34 61 77 71 -230 -229 -228 -99 -227 -97 -95 -93 245 0
25 24 23 21 76 58 70 -225 -224 -223 -91 -90 -222 -85 -84 244 0
-143 -142 -141 -140 -209 -242 243 0
242 -239 0
242 -240 0
242 -241 0
50 51 49 65 64 78 72 -235 -234 -233 -158 -232 -157 -156 -155 241 0
38 37 36 61 62 77 71 -230 -229 -228 -227 -153 -152 -151 -150 240 0
25 24 23 76 59 58 70 -225 -224 -223 -222 -148 -147 -146 -145 239 0
-143 -142 -141 -140 -237 -111 238 0
237 -226 0
237 -231 0
237 -236 0
50 49 65 64 75 78 72 -235 -197 -234 -233 -196 -195 -232 -194 236 0
235 56 0
235 12 0
234 11 0
234 18 0
233 15 0
233 -11 0
232 52 0
232 -12 0
37 36 61 62 74 77 71 -230 -229 -192 -228 -227 -191 -190 -189 231 0
230 14 0
230 -11 0
229 11 0
229 16 0
228 39 0
228 -12 0
227 43 0
227 12 0
24 23 76 59 58 73 70 -225 -224 -223 -187 -186 -222 -185 -184 226 0
225 30 0
225 12 0
224 11 0
224 17 0
223 13 0
223 -11 0
222 26 0
222 -12 0
221 -200 0
221 -217 0
221 -218 0
221 -219 0
221 -220 0
-143 -142 -141 -140 -139 220 0
-143 -142 -141 -140 -216 -176 219 0
-143 -142 -141 -140 -199 -181 218 0
-143 -142 -141 -140 -216 -212 217 0
216 -213 0
216 -214 0
216 -215 0
66 51 49 48 46 65 64 -134 -133 -132 -158 -157 -156 -155 -130 215 0
38 33 35 36 61 63 62 -128 -123 -153 -152 -122 -151 -150 -121 214 0
25 23 22 20 60 59 58 -119 -116 -148 -147 -146 -145 -113 -112 213 0
212 -205 0
212 -210 0
212 -211 0
-143 -142 -141 -140 -176 211 0
-143 -142 -141 -140 -209 -139 210 0
209 -206 0
209 -207 0
209 -208 0
50 49 48 64 75 47 72 -109 -174 -105 -173 -172 -103 -102 -171 208 0
35 37 36 34 61 74 71 -99 -97 -95 -169 -93 -168 -167 -166 207 0
24 23 22 21 -164 58 73 70 -91 -90 -163 -85 -84 -162 -161 206 0
-143 -142 -141 -140 -204 -181 205 0
204 -201 0
204 -202 0
204 -203 0
66 51 49 48 65 64 72 -174 -197 -173 -172 -196 -195 -194 -171 203 0
38 35 36 61 63 62 71 -192 -191 -190 -189 -169 -168 -167 -166 202 0
25 23 22 -164 60 59 58 70 -163 -187 -186 -185 -184 -162 -161 201 0
-143 -142 -141 -140 -199 -183 200 0
199 -188 0
199 -193 0
199 -198 0
50 51 49 48 46 65 64 -197 -134 -133 -132 -196 -195 -194 -130 198 0
197 57 0
197 10 0
196 55 0
196 9 0
195 53 0
195 -9 0
194 54 0
194 -10 0
38 33 35 37 36 61 62 -128 -192 -123 -122 -191 -190 -189 -121 193 0
192 44 0
192 10 0
191 40 0
191 -9 0
190 42 0
190 9 0
189 41 0
189 -10 0
25 24 23 22 20 59 58 -119 -116 -187 -186 -185 -184 -113 -112 188 0
187 29 0
187 9 0
186 27 0
186 -9 0
185 31 0
185 10 0
184 28 0
184 -10 0
183 -144 0
183 -177 0
183 -182 0
-143 -142 -141 -140 -181 182 0
181 -178 0
181 -179 0
181 -180 0
69 66 51 48 65 64 72 -137 -108 -136 -135 -107 -106 -104 -131 180 0
38 35 61 68 63 62 71 -127 -126 -100 -125 -124 -98 -96 -94 179 0
25 22 67 60 59 58 70 -118 -117 -89 -88 -87 -115 -86 -114 178 0
-143 -142 -141 -140 -176 -160 177 0
176 -165 0
176 -170 0
176 -175 0
50 69 51 48 65 64 72 -137 -174 -136 -135 -173 -172 -131 -171 175 0
174 56 0
174 8 0
173 18 0
173 7 0
172 52 0
172 -8 0
171 15 0
171 -7 0
38 35 37 61 68 62 71 -127 -126 -125 -124 -169 -168 -167 -166 170 0
169 39 0
169 -8 0
168 43 0
168 8 0
167 16 0
167 7 0
166 14 0
166 -7 0
25 24 22 -164 67 59 58 70 -118 -117 -163 -115 -114 -162 -161 165 0
164 30 0
164 8 0
163 17 0
163 7 0
162 26 0
162 -8 0
161 13 0
161 -7 0
160 -149 0
160 -154 0
160 -159 0
50 49 48 65 64 75 72 -108 -107 -106 -158 -104 -157 -156 -155 159 0
158 55 0
158 7 0
157 57 0
157 8 0
156 54 0
156 -8 0
155 53 0
155 -7 0
35 37 36 61 62 74 71 -100 -98 -153 -96 -152 -94 -151 -150 154 0
153 40 0
153 -7 0
152 44 0
152 8 0
151 41 0
151 -8 0
150 42 0
150 7 0
24 23 22 59 58 73 70 -89 -88 -87 -148 -86 -147 -146 -145 149 0
148 31 0
148 8 0
147 27 0
147 -7 0
146 29 0
146 7 0
145 28 0
145 -8 0
-143 -142 -141 -140 -139 -111 144 0
143 14 0
143 -13 0
142 17 0
142 -16 0
141 15 0
141 -14 0
140 16 0
140 -18 0
139 -120 0
139 -129 0
139 -138 0
50 69 51 48 46 65 64 -137 -136 -135 -134 -133 -132 -131 -130 138 0
137 57 0
137 12 0
136 55 0
136 11 0
135 53 0
135 -11 0
134 18 0
134 5 0
133 56 0
133 6 0
132 52 0
132 -6 0
131 54 0
131 -12 0
130 15 0
130 -5 0
38 33 35 37 61 68 62 -128 -127 -126 -125 -124 -123 -122 -121 129 0
128 16 0
128 5 0
127 42 0
127 11 0
126 40 0
126 -11 0
125 44 0
125 12 0
124 41 0
124 -12 0
123 43 0
123 6 0
122 39 0
122 -6 0
121 14 0
121 -5 0
25 24 22 20 67 59 58 -119 -118 -117 -116 -115 -114 -113 -112 120 0
119 30 0
119 6 0
118 29 0
118 11 0
117 27 0
117 -11 0
116 26 0
116 -6 0
115 31 0
115 12 0
114 28 0
114 -12 0
113 17 0
113 5 0
112 13 0
112 -5 0
111 -92 0
111 -101 0
111 -110 0
50 51 49 48 64 47 72 -109 -108 -107 -106 -105 -104 -103 -102 110 0
109 57 0
109 6 0
108 56 0
108 10 0
107 15 0
107 -9 0
106 18 0
106 9 0
105 54 0
105 -6 0
104 52 0
104 -10 0
103 55 0
103 5 0
102 53 0
102 -5 0
38 35 37 36 34 61 71 -100 -99 -98 -97 -96 -95 -94 -93 101 0
100 14 0
100 -9 0
99 44 0
99 6 0
98 16 0
98 9 0
97 40 0
97 -5 0
96 43 0
96 10 0
95 41 0
95 -6 0
94 39 0
94 -10 0
93 42 0
93 5 0
25 24 23 22 21 58 70 -91 -90 -89 -88 -87 -86 -85 -84 92 0
91 31 0
91 6 0
90 28 0
90 -6 0
89 17 0
89 9 0
88 13 0
88 -9 0
87 26 0
87 -10 0
86 30 0
86 10 0
85 27 0
85 -5 0
84 29 0
84 5 0
83 -79 0
83 -80 0
83 -81 0
83 -82 0
-5 -6 82 0
-11 -12 81 0
-7 -8 80 0
-9 -10 79 0
